s td 1048 2 1300
b 1 1 927
b 2 927 928
b 3 2
b 4 3
b 5 4 609
b 6 5 595
b 7 595 596
b 8 6
b 9 7 1190
b 10 1189 1190
b 11 1190
b 12 8
b 13 9 668
b 14 9 809
b 15 10
b 16 11 1015
b 17 12 484
b 18 12 1191
b 19 1191 1192
b 20 13 639
b 21 14 901
b 22 15 902
b 23 15 1061
b 24 16 929
b 25 929 930
b 26 17 421
b 27 421 422
b 28 18 793
b 29 793 794
b 30 19 789
b 31 19 1265
b 32 20
b 33 21 931
b 34 22 1007
b 35 23
b 36 24
b 37 25 671
b 38 26
b 39 27
b 40 28
b 41 29
b 42 30
b 43 31 619
b 44 619 620
b 45 32
b 46 33
b 47 34 358
b 48 34 770
b 49 35 743
b 50 743 744
b 51 36 452
b 52 37 811
b 53 38 1016
b 54 39 433
b 55 40 640
b 56 40 910
b 57 40 791
b 58 791 792
b 59 41 792
b 60 41 1153
b 61 42
b 62 43 463
b 63 44 464
b 64 44 470
b 65 469 470
b 66 470
b 67 45
b 68 46 1268
b 69 47 1263
b 70 48 1264
b 71 49 870
b 72 50 598
b 73 50 746
b 74 51 392
b 75 51 747
b 76 747 748
b 77 52
b 78 53
b 79 445 446
b 80 54 446
b 81 54 1194
b 82 55 601
b 83 56
b 84 57
b 85 58
b 86 59 782
b 87 59 819
b 88 60 968
b 89 61 749
b 90 749 750
b 91 62
b 92 63
b 93 64 840
b 94 64 914
b 95 65 354
b 96 65 939
b 97 66 978
b 98 67 574
b 99 573 574
b 100 574
b 101 68 989
b 102 68 1154
b 103 69 1121
b 104 70 684
b 105 71 613
b 106 71 653
b 107 72 881
b 108 881 882
b 109 73 903
b 110 74 904
b 111 903 904
b 112 904
b 113 102 656
b 114 655 656
b 115 75 655
b 116 75 1088
b 117 1087 1088
b 118 1088
b 119 76 558
b 120 557 558
b 121 558
b 122 455 456
b 123 77 455
b 124 77 861
b 125 861 862
b 126 78 1246
b 127 1245 1246
b 128 1246
b 129 79 449
b 130 449 450
b 131 80 883
b 132 81 1279
b 133 82
b 134 83
b 135 84
b 136 85 1281
b 137 1281 1282
b 138 405 406
b 139 86 405
b 140 86 820
b 141 821 822
b 142 87 821
b 143 87 885
b 144 88 886
b 145 89
b 146 90
b 147 91 1102
b 148 92 424
b 149 93 1221
b 150 94
b 151 95
b 152 96 561
b 153 97 945
b 154 98 1182
b 155 98 1223
b 156 99 1224
b 157 100
b 158 101 340
b 159 339 340
b 160 340
b 161 130 342
b 162 341 342
b 163 103 341
b 164 103 644
b 165 643 644
b 166 644
b 167 104
b 168 105
b 169 106
b 170 107 522
b 171 521 522
b 172 522
b 173 108 393
b 174 393 394
b 175 109
b 176 110 866
b 177 110 1091
b 178 1091 1092
b 179 138 960
b 180 111 709
b 181 111 959
b 182 959 960
b 183 960
b 184 112 415
b 185 140 936
b 186 113 416
b 187 113 935
b 188 935 936
b 189 936
b 190 114 979
b 191 979 980
b 192 115 823
b 193 116
b 194 117 473
b 195 117 712
b 196 117 1241
b 197 1241 1242
b 198 118 721
b 199 119
b 200 120 508
b 201 121
b 202 122 1126
b 203 123 1113
b 204 123 1176
b 205 124 1114
b 206 125 586
b 207 125 1283
b 208 126 356
b 209 126 427
b 210 126 1038
b 211 1037 1038
b 212 1038
b 213 127 428
b 214 127 757
b 215 128
b 216 937 938
b 217 129 937
b 218 129 1199
b 219 131 1053
b 220 621 622
b 221 132 622
b 222 132 1095
b 223 133 537
b 224 134
b 225 135
b 226 136
b 227 137 1077
b 228 139 383
b 229 139 1124
b 230 141 923
b 231 142 361
b 232 142 1144
b 233 143 429
b 234 144 430
b 235 429 430
b 236 430
b 237 145
b 238 146
b 239 147 385
b 240 174 386
b 241 385 386
b 242 386
b 243 148
b 244 149 633
b 245 150 698
b 246 150 1147
b 247 1147 1148
b 248 151 855
b 249 855 856
b 250 152 1284
b 251 153 1225
b 252 1225 1226
b 253 154
b 254 155 396
b 255 156 658
b 256 156 1200
b 257 157 631
b 258 631 632
b 259 158
b 260 159 540
b 261 160 1076
b 262 161
b 263 162 589
b 264 163 590
b 265 164
b 266 165 724
b 267 165 1167
b 268 166 1168
b 269 167 513
b 270 167 948
b 271 168 924
b 272 169 471
b 273 170
b 274 813 814
b 275 171 813
b 276 171 1252
b 277 172 1208
b 278 1207 1208
b 279 1208
b 280 173
b 281 175 375
b 282 175 407
b 283 176 1227
b 284 177 841
b 285 177 1228
b 286 1227 1228
b 287 1228
b 288 178
b 289 179 825
b 290 179 1157
b 291 180 498
b 292 497 498
b 293 498
b 294 181 1024
b 295 181 1177
b 296 182 798
b 297 183
b 298 184 418
b 299 185 409
b 300 186 563
b 301 187 1171
b 302 214 666
b 303 214 1172
b 304 1171 1172
b 305 1172
b 306 188
b 307 189 482
b 308 190
b 309 191 674
b 310 673 674
b 311 674
b 312 192 849
b 313 193 850
b 314 849 850
b 315 850
b 316 194
b 317 195 367
b 318 195 1012
b 319 1011 1012
b 320 1012
b 321 196
b 322 805 806
b 323 197 805
b 324 197 1100
b 325 198 591
b 326 199
b 327 200 346
b 328 201
b 329 202 736
b 330 203
b 331 204 398
b 332 205 807
b 333 205 1161
b 334 1161 1162
b 335 206
b 336 207 515
b 337 208
b 338 209
b 339 210 918
b 340 211 1070
b 341 212 1055
b 342 213 665
b 343 213 1056
b 344 1055 1056
b 345 1056
b 346 215 963
b 347 215 1044
b 348 635 636
b 349 216 636
b 350 216 1234
b 351 1233 1234
b 352 1234
b 353 217
b 354 218 400
b 355 399 400
b 356 400
b 357 219 623
b 358 220 972
b 359 220 1254
b 360 221 713
b 361 713 714
b 362 222 437
b 363 222 1130
b 364 223 438
b 365 223 949
b 366 223 951
b 367 224 950
b 368 225 715
b 369 225 762
b 370 226
b 371 227 974
b 372 973 974
b 373 974
b 374 228
b 375 229
b 376 230 970
b 377 230 1026
b 378 1025 1026
b 379 1026
b 380 231 549
b 381 549 550
b 382 232 1057
b 383 233 365
b 384 234
b 385 235
b 386 236 517
b 387 237 1001
b 388 238 679
b 389 238 778
b 390 238 844
b 391 239 1257
b 392 1257 1258
b 393 240 500
b 394 240 1201
b 395 241 1163
b 396 1163 1164
b 397 242 851
b 398 851 852
b 399 243 389
b 400 244
b 401 245 467
b 402 245 801
b 403 246 741
b 404 247 742
b 405 741 742
b 406 742
b 407 248
b 408 249 584
b 409 250
b 410 251 1289
b 411 251 1296
b 412 252 716
b 413 253 1259
b 414 1259 1260
b 415 254 348
b 416 347 348
b 417 348
b 418 255 682
b 419 255 763
b 420 256 352
b 421 256 1106
b 422 257 650
b 423 257 1027
b 424 1027 1028
b 425 284 1028
b 426 284 1235
b 427 258 1256
b 428 259 1097
b 429 260 366
b 430 260 1098
b 431 1097 1098
b 432 1098
b 433 261
b 434 262 370
b 435 290 965
b 436 290 838
b 437 837 838
b 438 263 837
b 439 263 1074
b 440 263 1203
b 441 1203 1204
b 442 264 1002
b 443 265 857
b 444 266 858
b 445 857 858
b 446 858
b 447 267 725
b 448 268 551
b 449 551 552
b 450 269
b 451 270
b 452 271 460
b 453 272 468
b 454 273 727
b 455 727 728
b 456 274
b 457 275
b 458 276 476
b 459 277 731
b 460 278 505
b 461 505 506
b 462 279 439
b 463 439 440
b 464 280
b 465 281 525
b 466 282 1059
b 467 1059 1060
b 468 283 765
b 469 283 1285
b 470 285
b 471 286
b 472 314 1272
b 473 287 785
b 474 287 1271
b 475 1271 1272
b 476 1272
b 477 288
b 478 289
b 479 291
b 480 292 594
b 481 292 1031
b 482 293 1032
b 483 294 954
b 484 294 955
b 485 295 1137
b 486 296
b 487 875 876
b 488 297 876
b 489 297 1109
b 490 297 1217
b 491 298
b 492 299 1005
b 493 1005 1006
b 494 300 845
b 495 845 846
b 496 301 1083
b 497 302 1094
b 498 303 542
b 499 303 829
b 500 304
b 501 305 1187
b 502 306 1188
b 503 307
b 504 308
b 505 309 441
b 506 461 462
b 507 309 462
b 508 309 477
b 509 310 442
b 510 311
b 511 312 890
b 512 312 926
b 513 313 543
b 514 315
b 515 316 995
b 516 317 996
b 517 995 996
b 518 996
b 519 318 528
b 520 319
b 521 320 419
b 522 320 880
b 523 321
b 524 322 1138
b 525 323 986
b 526 324 1218
b 527 325
b 528 326 900
b 529 899 900
b 530 900
b 531 327 1140
b 532 328
b 533 1021 1022
b 534 329 1021
b 535 329 1274
b 536 330
b 537 331
b 538 332 718
b 539 332 1212
b 540 333
b 541 334
b 542 335
b 543 336 478
b 544 336 987
b 545 337 988
b 546 338 1300
b 547 1299 1300
b 548 1300
b 549 343
b 550 344
b 551 345
b 552 349 350
b 553 351
b 554 353
b 555 355
b 556 357
b 557 359
b 558 360
b 559 362
b 560 363
b 561 364
b 562 368
b 563 369
b 564 371
b 565 372
b 566 373
b 567 374
b 568 376
b 569 377 378
b 570 379
b 571 380
b 572 381
b 573 382
b 574 384
b 575 387
b 576 388
b 577 390
b 578 391
b 579 395
b 580 397
b 581 401
b 582 402
b 583 403 404
b 584 408
b 585 410
b 586 411
b 587 412
b 588 413
b 589 414
b 590 417
b 591 420
b 592 423
b 593 425 426
b 594 431
b 595 432
b 596 434
b 597 435 436
b 598 443
b 599 444
b 600 447
b 601 448
b 602 451
b 603 453 454
b 604 457
b 605 458
b 606 459
b 607 465 466
b 608 472
b 609 474
b 610 475
b 611 479 480
b 612 481
b 613 483
b 614 485 486
b 615 487 488
b 616 489 490
b 617 491 492
b 618 493
b 619 494
b 620 495 496
b 621 499
b 622 501
b 623 502
b 624 503
b 625 504
b 626 507
b 627 509
b 628 510
b 629 511
b 630 512
b 631 514
b 632 516
b 633 518
b 634 519
b 635 520
b 636 523
b 637 524
b 638 526
b 639 527
b 640 529
b 641 530
b 642 531
b 643 532
b 644 533 534
b 645 535
b 646 536
b 647 538
b 648 539
b 649 541
b 650 544
b 651 545 546
b 652 547
b 653 548
b 654 553
b 655 554
b 656 555
b 657 556
b 658 559 560
b 659 562
b 660 564
b 661 565
b 662 566
b 663 567
b 664 568
b 665 569 570
b 666 571 572
b 667 575
b 668 576
b 669 577
b 670 578
b 671 579
b 672 580
b 673 581
b 674 582
b 675 583
b 676 585
b 677 587
b 678 588
b 679 592
b 680 593
b 681 597
b 682 599
b 683 600
b 684 602
b 685 603
b 686 604
b 687 605
b 688 606
b 689 607 608
b 690 610
b 691 611
b 692 612
b 693 614
b 694 615
b 695 616
b 696 617
b 697 618
b 698 624
b 699 625
b 700 626
b 701 627
b 702 628
b 703 629
b 704 630
b 705 634
b 706 637
b 707 638
b 708 641
b 709 642
b 710 645 646
b 711 647
b 712 648
b 713 649
b 714 651 652
b 715 654
b 716 657
b 717 659 660
b 718 661
b 719 662
b 720 663
b 721 664
b 722 667
b 723 669
b 724 670
b 725 672
b 726 675 676
b 727 677
b 728 678
b 729 680
b 730 681
b 731 683
b 732 685 686
b 733 687
b 734 688
b 735 689 690
b 736 691
b 737 692
b 738 693 694
b 739 695
b 740 696
b 741 697
b 742 699
b 743 700
b 744 701 702
b 745 703
b 746 704
b 747 705
b 748 706
b 749 707
b 750 708
b 751 710
b 752 711
b 753 717
b 754 719 720
b 755 722
b 756 723
b 757 726
b 758 729
b 759 730
b 760 732
b 761 733 734
b 762 735
b 763 737
b 764 738
b 765 739
b 766 740
b 767 745
b 768 751 752
b 769 753 754
b 770 755 756
b 771 758
b 772 759
b 773 760
b 774 761
b 775 764
b 776 766
b 777 767 768
b 778 769
b 779 771
b 780 772
b 781 773
b 782 774
b 783 775 776
b 784 777
b 785 779
b 786 780
b 787 781
b 788 783
b 789 784
b 790 786
b 791 787 788
b 792 790
b 793 795
b 794 796
b 795 797
b 796 799
b 797 800
b 798 802
b 799 803 804
b 800 808
b 801 810
b 802 812
b 803 815
b 804 816
b 805 817
b 806 818
b 807 824
b 808 826
b 809 827
b 810 828
b 811 830
b 812 831
b 813 832
b 814 833
b 815 834
b 816 835 836
b 817 839
b 818 842
b 819 843
b 820 847
b 821 848
b 822 853
b 823 854
b 824 859
b 825 860
b 826 863
b 827 864
b 828 865
b 829 867 868
b 830 869
b 831 871 872
b 832 873 874
b 833 877
b 834 878
b 835 879
b 836 884
b 837 887 888
b 838 889
b 839 891 892
b 840 893
b 841 894
b 842 895
b 843 896
b 844 897
b 845 898
b 846 905
b 847 906
b 848 907 908
b 849 909
b 850 911
b 851 912
b 852 913
b 853 915
b 854 916
b 855 917
b 856 919
b 857 920
b 858 921
b 859 922
b 860 925
b 861 932
b 862 933
b 863 934
b 864 940
b 865 941 942
b 866 943
b 867 944
b 868 946
b 869 947
b 870 952
b 871 953
b 872 956
b 873 957
b 874 958
b 875 961 962
b 876 964
b 877 966
b 878 967
b 879 969
b 880 971
b 881 975
b 882 976
b 883 977
b 884 981
b 885 982
b 886 983 984
b 887 985
b 888 990
b 889 991
b 890 992
b 891 993 994
b 892 997
b 893 998
b 894 999
b 895 1000
b 896 1003
b 897 1004
b 898 1008
b 899 1009
b 900 1010
b 901 1013
b 902 1014
b 903 1017
b 904 1018
b 905 1019 1020
b 906 1023
b 907 1029
b 908 1030
b 909 1033 1034
b 910 1035
b 911 1036
b 912 1039 1040
b 913 1041
b 914 1042
b 915 1043
b 916 1045 1046
b 917 1047
b 918 1048
b 919 1049
b 920 1050
b 921 1051
b 922 1052
b 923 1054
b 924 1058
b 925 1062
b 926 1063
b 927 1064
b 928 1065
b 929 1066
b 930 1067
b 931 1068
b 932 1069
b 933 1071 1072
b 934 1073
b 935 1075
b 936 1078
b 937 1079 1080
b 938 1081 1082
b 939 1084
b 940 1085
b 941 1086
b 942 1089 1090
b 943 1093
b 944 1096
b 945 1099
b 946 1101
b 947 1103
b 948 1104
b 949 1105
b 950 1107 1108
b 951 1110
b 952 1111 1112
b 953 1115
b 954 1116
b 955 1117
b 956 1118
b 957 1119
b 958 1120
b 959 1122
b 960 1123
b 961 1125
b 962 1127
b 963 1128
b 964 1129
b 965 1131
b 966 1132
b 967 1133
b 968 1134
b 969 1135
b 970 1136
b 971 1139
b 972 1141
b 973 1142
b 974 1143
b 975 1145 1146
b 976 1149 1150
b 977 1151 1152
b 978 1155 1156
b 979 1158
b 980 1159 1160
b 981 1165
b 982 1166
b 983 1169
b 984 1170
b 985 1173
b 986 1174
b 987 1175
b 988 1178
b 989 1179
b 990 1180
b 991 1181
b 992 1183 1184
b 993 1185
b 994 1186
b 995 1193
b 996 1195 1196
b 997 1197 1198
b 998 1202
b 999 1205
b 1000 1206
b 1001 1209
b 1002 1210
b 1003 1211
b 1004 1213 1214
b 1005 1215
b 1006 1216
b 1007 1219
b 1008 1220
b 1009 1222
b 1010 1229
b 1011 1230
b 1012 1231
b 1013 1232
b 1014 1236
b 1015 1237
b 1016 1238
b 1017 1239
b 1018 1240
b 1019 1243
b 1020 1244
b 1021 1247
b 1022 1248
b 1023 1249
b 1024 1250
b 1025 1251
b 1026 1253
b 1027 1255
b 1028 1261
b 1029 1262
b 1030 1266
b 1031 1267
b 1032 1269 1270
b 1033 1273
b 1034 1275
b 1035 1276
b 1036 1277 1278
b 1037 1280
b 1038 1286
b 1039 1287
b 1040 1288
b 1041 1290
b 1042 1291
b 1043 1292
b 1044 1293
b 1045 1294
b 1046 1295
b 1047 1297
b 1048 1298
1 2
1 3
1 4
1 5
1 6
1 8
1 9
1 12
1 13
1 15
1 16
1 17
1 20
1 21
1 22
1 24
1 26
1 28
1 30
1 32
1 33
1 34
1 35
1 36
1 37
1 38
1 39
1 40
1 41
1 42
1 43
1 45
1 46
1 47
1 49
1 51
1 52
1 53
1 54
1 55
1 61
1 62
1 63
1 67
1 68
1 69
1 70
1 71
1 72
1 74
1 77
1 78
1 79
1 82
1 83
1 84
1 85
1 86
1 88
1 89
1 91
1 92
1 93
1 95
1 97
1 98
1 101
1 103
1 104
1 105
1 107
1 109
1 113
1 119
1 122
1 126
1 129
1 131
1 132
1 133
1 134
1 135
1 136
1 138
1 141
1 144
1 145
1 146
1 147
1 148
1 149
1 150
1 151
1 152
1 153
1 154
1 156
1 157
1 158
1 161
1 167
1 168
1 169
1 170
1 173
1 175
1 176
1 179
1 184
1 185
1 190
1 192
1 193
1 194
1 198
1 199
1 200
1 201
1 202
1 203
1 205
1 206
1 208
1 213
1 215
1 216
1 219
1 220
1 223
1 224
1 225
1 226
1 227
1 228
1 230
1 231
1 233
1 237
1 238
1 239
1 243
1 244
1 245
1 248
1 250
1 251
1 253
1 254
1 255
1 257
1 259
1 260
1 261
1 262
1 263
1 264
1 265
1 266
1 268
1 269
1 271
1 272
1 273
1 274
1 277
1 280
1 281
1 283
1 288
1 289
1 291
1 294
1 296
1 297
1 298
1 299
1 300
1 301
1 306
1 307
1 308
1 309
1 312
1 316
1 317
1 321
1 322
1 325
1 326
1 327
1 328
1 329
1 330
1 331
1 332
1 335
1 336
1 337
1 338
1 339
1 340
1 341
1 346
1 348
1 353
1 354
1 357
1 358
1 360
1 362
1 364
1 367
1 368
1 370
1 371
1 374
1 375
1 376
1 380
1 382
1 383
1 384
1 385
1 386
1 387
1 388
1 391
1 393
1 395
1 397
1 399
1 400
1 401
1 403
1 407
1 408
1 409
1 410
1 412
1 413
1 415
1 418
1 420
1 422
1 427
1 428
1 433
1 434
1 435
1 442
1 443
1 447
1 448
1 450
1 451
1 452
1 453
1 454
1 456
1 457
1 458
1 459
1 460
1 462
1 464
1 465
1 466
1 468
1 470
1 471
1 472
1 477
1 478
1 479
1 480
1 482
1 483
1 485
1 486
1 487
1 491
1 492
1 494
1 496
1 497
1 498
1 500
1 501
1 502
1 503
1 504
1 505
1 509
1 510
1 511
1 513
1 514
1 515
1 519
1 520
1 521
1 523
1 524
1 525
1 526
1 527
1 528
1 531
1 532
1 533
1 536
1 537
1 538
1 540
1 541
1 542
1 543
1 545
1 546
1 549
1 550
1 551
1 552
1 553
1 554
1 555
1 556
1 557
1 558
1 559
1 560
1 561
1 562
1 563
1 564
1 565
1 566
1 567
1 568
1 569
1 570
1 571
1 572
1 573
1 574
1 575
1 576
1 577
1 578
1 579
1 580
1 581
1 582
1 583
1 584
1 585
1 586
1 587
1 588
1 589
1 590
1 591
1 592
1 593
1 594
1 595
1 596
1 597
1 598
1 599
1 600
1 601
1 602
1 603
1 604
1 605
1 606
1 607
1 608
1 609
1 610
1 611
1 612
1 613
1 614
1 615
1 616
1 617
1 618
1 619
1 620
1 621
1 622
1 623
1 624
1 625
1 626
1 627
1 628
1 629
1 630
1 631
1 632
1 633
1 634
1 635
1 636
1 637
1 638
1 639
1 640
1 641
1 642
1 643
1 644
1 645
1 646
1 647
1 648
1 649
1 650
1 651
1 652
1 653
1 654
1 655
1 656
1 657
1 658
1 659
1 660
1 661
1 662
1 663
1 664
1 665
1 666
1 667
1 668
1 669
1 670
1 671
1 672
1 673
1 674
1 675
1 676
1 677
1 678
1 679
1 680
1 681
1 682
1 683
1 684
1 685
1 686
1 687
1 688
1 689
1 690
1 691
1 692
1 693
1 694
1 695
1 696
1 697
1 698
1 699
1 700
1 701
1 702
1 703
1 704
1 705
1 706
1 707
1 708
1 709
1 710
1 711
1 712
1 713
1 714
1 715
1 716
1 717
1 718
1 719
1 720
1 721
1 722
1 723
1 724
1 725
1 726
1 727
1 728
1 729
1 730
1 731
1 732
1 733
1 734
1 735
1 736
1 737
1 738
1 739
1 740
1 741
1 742
1 743
1 744
1 745
1 746
1 747
1 748
1 749
1 750
1 751
1 752
1 753
1 754
1 755
1 756
1 757
1 758
1 759
1 760
1 761
1 762
1 763
1 764
1 765
1 766
1 767
1 768
1 769
1 770
1 771
1 772
1 773
1 774
1 775
1 776
1 777
1 778
1 779
1 780
1 781
1 782
1 783
1 784
1 785
1 786
1 787
1 788
1 789
1 790
1 791
1 792
1 793
1 794
1 795
1 796
1 797
1 798
1 799
1 800
1 801
1 802
1 803
1 804
1 805
1 806
1 807
1 808
1 809
1 810
1 811
1 812
1 813
1 814
1 815
1 816
1 817
1 818
1 819
1 820
1 821
1 822
1 823
1 824
1 825
1 826
1 827
1 828
1 829
1 830
1 831
1 832
1 833
1 834
1 835
1 836
1 837
1 838
1 839
1 840
1 841
1 842
1 843
1 844
1 845
1 846
1 847
1 848
1 849
1 850
1 851
1 852
1 853
1 854
1 855
1 856
1 857
1 858
1 859
1 860
1 861
1 862
1 863
1 864
1 865
1 866
1 867
1 868
1 869
1 870
1 871
1 872
1 873
1 874
1 875
1 876
1 877
1 878
1 879
1 880
1 881
1 882
1 883
1 884
1 885
1 886
1 887
1 888
1 889
1 890
1 891
1 892
1 893
1 894
1 895
1 896
1 897
1 898
1 899
1 900
1 901
1 902
1 903
1 904
1 905
1 906
1 907
1 908
1 909
1 910
1 911
1 912
1 913
1 914
1 915
1 916
1 917
1 918
1 919
1 920
1 921
1 922
1 923
1 924
1 925
1 926
1 927
1 928
1 929
1 930
1 931
1 932
1 933
1 934
1 935
1 936
1 937
1 938
1 939
1 940
1 941
1 942
1 943
1 944
1 945
1 946
1 947
1 948
1 949
1 950
1 951
1 952
1 953
1 954
1 955
1 956
1 957
1 958
1 959
1 960
1 961
1 962
1 963
1 964
1 965
1 966
1 967
1 968
1 969
1 970
1 971
1 972
1 973
1 974
1 975
1 976
1 977
1 978
1 979
1 980
1 981
1 982
1 983
1 984
1 985
1 986
1 987
1 988
1 989
1 990
1 991
1 992
1 993
1 994
1 995
1 996
1 997
1 998
1 999
1 1000
1 1001
1 1002
1 1003
1 1004
1 1005
1 1006
1 1007
1 1008
1 1009
1 1010
1 1011
1 1012
1 1013
1 1014
1 1015
1 1016
1 1017
1 1018
1 1019
1 1020
1 1021
1 1022
1 1023
1 1024
1 1025
1 1026
1 1027
1 1028
1 1029
1 1030
1 1031
1 1032
1 1033
1 1034
1 1035
1 1036
1 1037
1 1038
1 1039
1 1040
1 1041
1 1042
1 1043
1 1044
1 1045
1 1046
1 1047
1 1048
6 7
9 11
10 11
13 14
17 18
18 19
22 23
24 25
26 27
28 29
30 31
43 44
47 48
49 50
55 57
56 57
57 58
58 59
59 60
63 64
64 66
65 66
72 73
74 75
75 76
79 80
80 81
86 87
89 90
93 94
95 96
98 100
99 100
101 102
105 106
107 108
109 111
110 112
111 112
113 114
114 115
115 116
116 118
117 118
119 121
120 121
122 123
123 124
124 125
126 128
127 128
129 130
136 137
138 139
139 140
141 142
142 143
154 155
158 160
159 160
161 162
162 163
163 164
164 166
165 166
170 172
171 172
173 174
176 177
177 178
179 183
180 181
181 182
182 183
185 189
186 187
187 188
188 189
190 191
194 196
195 196
196 197
203 204
206 207
208 210
209 210
210 212
211 212
213 214
216 217
217 218
220 221
221 222
228 229
231 232
233 235
234 236
235 236
239 241
240 242
241 242
245 246
246 247
248 249
251 252
255 256
257 258
266 267
269 270
274 275
275 276
277 279
278 279
281 282
283 286
284 285
285 287
286 287
289 290
291 293
292 293
294 295
301 304
302 303
303 305
304 305
309 311
310 311
312 314
313 315
314 315
317 318
318 320
319 320
322 323
323 324
332 333
333 334
341 344
342 343
343 345
344 345
346 347
348 349
349 350
350 352
351 352
354 356
355 356
358 359
360 361
362 363
364 366
365 366
368 369
371 373
372 373
376 377
377 379
378 379
380 381
388 390
389 390
391 392
393 394
395 396
397 398
401 402
403 405
404 406
405 406
410 411
413 414
415 417
416 417
418 419
420 421
422 423
423 424
424 425
425 426
428 431
429 430
430 432
431 432
435 436
436 437
437 438
438 440
439 440
440 441
443 445
444 446
445 446
448 449
454 455
460 461
462 463
466 467
468 469
472 476
473 474
474 475
475 476
480 481
483 484
487 488
488 490
489 490
492 493
494 495
498 499
505 508
506 507
507 508
511 512
515 517
516 518
517 518
521 522
528 530
529 530
533 534
534 535
538 539
543 544
546 548
547 548
